NAME : portgen-18-11
COMMENT : portgen N=18, seed=11
TYPE : TSP
DIMENSION : 18
EDGE_WEIGHT_TYPE : EUC_2D
NODE_COORD_SECTION
1 894833 498824
2 269321 547700
3 192952 602876
4 333870 554198
5 242151 648875
6 798770 991707
7 532564 85112
8 934698 251921
9 772656 580472
10 426377 511921
11 965268 291438
12 830998 835175
13 669057 603933
14 499932 122088
15 726919 754129
16 198368 315976
17 757754 995603
18 606989 824322
